self-compositions/words_1/words_192_SAT.qaiger
aag 109 24 0 1 85
18
4
36
32
6
40
42
38
20
10
12
8
30
44
46
22
28
16
26
48
34
14
2
24
219
50 5 3
52 50 7
54 52 9
56 54 11
58 56 13
60 57 12
62 61 59
64 62 18
66 58 15
68 59 14
70 69 67
72 70 20
74 71 21
76 75 73
78 76 64
80 77 65
82 81 79
84 37 35
86 84 39
88 86 41
90 88 43
92 90 45
94 92 47
96 93 46
98 97 95
100 98 82
102 99 83
104 55 10
106 105 57
108 89 42
110 109 91
112 110 106
114 53 8
116 115 55
118 87 40
120 119 89
122 120 116
124 51 6
126 125 53
128 85 38
130 129 87
132 131 127
134 130 126
136 35 3
138 36 4
140 138 137
142 141 85
144 142 51
146 145 135
148 147 133
150 149 123
152 121 117
154 111 107
156 155 153
158 156 151
160 159 113
162 91 44
164 163 93
166 165 160
168 63 19
170 169 65
172 164 161
174 173 171
176 175 167
178 176 103
180 179 101
182 79 73
184 95 49
186 94 48
188 187 185
190 22 16
192 23 17
194 193 191
196 195 66
198 194 67
200 199 197
202 201 189
204 200 188
206 205 203
208 206 183
210 207 182
212 211 209
214 213 180
216 212 181
218 217 215
i0 1 x[0]
i1 2 y[1]
i2 2 z[1]
i3 1 x[7]
i4 2 y[2]
i5 2 z[3]
i6 2 z[4]
i7 2 z[2]
i8 1 x[1]
i9 2 y[4]
i10 2 y[5]
i11 2 y[3]
i12 1 x[6]
i13 2 z[5]
i14 2 z[6]
i15 1 x[2]
i16 1 x[5]
i17 2 y[7]
i18 1 x[4]
i19 2 z[7]
i20 2 z[0]
i21 2 y[6]
i22 2 y[0]
i23 1 x[3]
o0 bv[0]
c
simplified
  <
    add
      add
        1
        invert
          2 y
      << 5
        1 x
    2 z
