self-compositions/words_1/words_192_SAT.qaiger.qdimacs
p cnf 109 256
a 9 10 11 12 13 14 15 16 0
e 1 2 3 4 5 6 7 8 17 18 19 20 21 22 23 24 25 26 27 28 29 30 31 32 33 34 35 36 37 38 39 40 41 42 43 44 45 46 47 48 49 50 51 52 53 54 55 56 57 58 59 60 61 62 63 64 65 66 67 68 69 70 71 72 73 74 75 76 77 78 79 80 81 82 83 84 85 86 87 88 89 90 91 92 93 94 95 96 97 98 99 100 101 102 103 104 105 106 107 108 109 0
2 1 25 0
-2 -25 0
-1 -25 0
-25 3 26 0
25 -26 0
-3 -26 0
-26 4 27 0
26 -27 0
-4 -27 0
-27 5 28 0
27 -28 0
-5 -28 0
-28 6 29 0
28 -29 0
-6 -29 0
28 -6 30 0
-28 -30 0
6 -30 0
30 29 31 0
-30 -31 0
-29 -31 0
-31 -9 32 0
31 -32 0
9 -32 0
-29 7 33 0
29 -33 0
-7 -33 0
29 -7 34 0
-29 -34 0
7 -34 0
34 33 35 0
-34 -35 0
-33 -35 0
-35 -10 36 0
35 -36 0
10 -36 0
35 10 37 0
-35 -37 0
-10 -37 0
37 36 38 0
-37 -38 0
-36 -38 0
-38 -32 39 0
38 -39 0
32 -39 0
38 32 40 0
-38 -40 0
-32 -40 0
40 39 41 0
-40 -41 0
-39 -41 0
18 17 42 0
-18 -42 0
-17 -42 0
-42 19 43 0
42 -43 0
-19 -43 0
-43 20 44 0
43 -44 0
-20 -44 0
-44 21 45 0
44 -45 0
-21 -45 0
-45 22 46 0
45 -46 0
-22 -46 0
-46 23 47 0
46 -47 0
-23 -47 0
46 -23 48 0
-46 -48 0
23 -48 0
48 47 49 0
-48 -49 0
-47 -49 0
-49 -41 50 0
49 -50 0
41 -50 0
49 41 51 0
-49 -51 0
-41 -51 0
27 -5 52 0
-27 -52 0
5 -52 0
52 28 53 0
-52 -53 0
-28 -53 0
44 -21 54 0
-44 -54 0
21 -54 0
54 45 55 0
-54 -55 0
-45 -55 0
-55 -53 56 0
55 -56 0
53 -56 0
26 -4 57 0
-26 -57 0
4 -57 0
57 27 58 0
-57 -58 0
-27 -58 0
43 -20 59 0
-43 -59 0
20 -59 0
59 44 60 0
-59 -60 0
-44 -60 0
-60 -58 61 0
60 -61 0
58 -61 0
25 -3 62 0
-25 -62 0
3 -62 0
62 26 63 0
-62 -63 0
-26 -63 0
42 -19 64 0
-42 -64 0
19 -64 0
64 43 65 0
-64 -65 0
-43 -65 0
65 63 66 0
-65 -66 0
-63 -66 0
-65 -63 67 0
65 -67 0
63 -67 0
17 1 68 0
-17 -68 0
-1 -68 0
-18 -2 69 0
18 -69 0
2 -69 0
-69 68 70 0
69 -70 0
-68 -70 0
70 42 71 0
-70 -71 0
-42 -71 0
-71 25 72 0
71 -72 0
-25 -72 0
72 67 73 0
-72 -73 0
-67 -73 0
73 66 74 0
-73 -74 0
-66 -74 0
74 61 75 0
-74 -75 0
-61 -75 0
60 58 76 0
-60 -76 0
-58 -76 0
55 53 77 0
-55 -77 0
-53 -77 0
77 76 78 0
-77 -78 0
-76 -78 0
-78 75 79 0
78 -79 0
-75 -79 0
79 56 80 0
-79 -80 0
-56 -80 0
45 -22 81 0
-45 -81 0
22 -81 0
81 46 82 0
-81 -82 0
-46 -82 0
82 -80 83 0
-82 -83 0
80 -83 0
31 9 84 0
-31 -84 0
-9 -84 0
84 32 85 0
-84 -85 0
-32 -85 0
-82 80 86 0
82 -86 0
-80 -86 0
86 85 87 0
-86 -87 0
-85 -87 0
87 83 88 0
-87 -88 0
-83 -88 0
-88 51 89 0
88 -89 0
-51 -89 0
89 50 90 0
-89 -90 0
-50 -90 0
39 36 91 0
-39 -91 0
-36 -91 0
47 24 92 0
-47 -92 0
-24 -92 0
-47 -24 93 0
47 -93 0
24 -93 0
93 92 94 0
-93 -94 0
-92 -94 0
-11 -8 95 0
11 -95 0
8 -95 0
11 8 96 0
-11 -96 0
-8 -96 0
96 95 97 0
-96 -97 0
-95 -97 0
97 -33 98 0
-97 -98 0
33 -98 0
-97 33 99 0
97 -99 0
-33 -99 0
99 98 100 0
-99 -100 0
-98 -100 0
100 94 101 0
-100 -101 0
-94 -101 0
-100 -94 102 0
100 -102 0
94 -102 0
102 101 103 0
-102 -103 0
-101 -103 0
-103 91 104 0
103 -104 0
-91 -104 0
103 -91 105 0
-103 -105 0
91 -105 0
105 104 106 0
-105 -106 0
-104 -106 0
106 -90 107 0
-106 -107 0
90 -107 0
-106 90 108 0
106 -108 0
-90 -108 0
108 107 109 0
-108 -109 0
-107 -109 0
-109 0
